Start evaluate stage for setting _10000_5_4q_mnl_A500...

Evaluating using MNL with setting tag _10000_5_4q_mnl_A500.
 Results stored at /export/storage_covidvaccine/Result/MNL_partial/M5_K10000_4q/HighSchools/

The number of HighSchools opened: 4535
Set parameter ServerPassword
Set parameter CSQueueTimeout to value 120
Set parameter CSIdleTimeout to value 60
Set parameter ServerTimeout to value 10
Set parameter TokenServer to value "164.67.163.231"
Set parameter MIPFocus to value 3
Set parameter MIPGap to value 0.005
Set parameter TimeLimit to value 21600
Gurobi Optimizer version 10.0.1 build v10.0.1rc0 (linux64)

CPU model: AMD EPYC 7742 64-Core Processor, instruction set [SSE2|AVX|AVX2]
Thread count: 128 physical cores, 256 logical processors, using up to 32 threads

Optimize a model with 85812375 rows, 42903525 columns and 85842573 nonzeros
Model fingerprint: 0xcd468859
Coefficient statistics:
  Matrix range     [4e-11, 8e+03]
  Objective range  [4e-11, 8e+03]
  Bounds range     [1e+00, 1e+00]
  RHS range        [3e-14, 1e+04]
Warning: Model contains large matrix coefficient range
         Consider reformulating model or setting NumericFocus parameter
         to avoid numerical issues.
Presolve removed 793 rows and 0 columns (presolve time = 13s) ...
Presolve removed 85811297 rows and 42868006 columns (presolve time = 20s) ...
Presolve removed 85811297 rows and 42902447 columns (presolve time = 27s) ...
Presolve removed 85811297 rows and 42902447 columns (presolve time = 31s) ...
Presolve removed 85812375 rows and 42903525 columns
Presolve time: 40.06s
Presolve: All rows and columns removed
Iteration    Objective       Primal Inf.    Dual Inf.      Time
       0    3.3972074e+07   0.000000e+00   0.000000e+00     86s

Solved in 0 iterations and 86.03 seconds (51.24 work units)
Optimal objective  3.397207400e+07
Evaluation finished!

Evaluation with leftover fulfillments...

========================================================================================================================
Start filling the leftover demands to their 2 choice

Total demand fulfilled in previous round 33.97207, with leftover unfulfilled demand: 2.09778;    Resulting in a total of 36.06985, but b/c consideration set, the maximum possible demand in coming round is 1.47132;    Try to fill them with 3456 sites that has leftover capacity 11.37617

Set parameter MIPFocus to value 3
Set parameter MIPGap to value 0.005
Set parameter TimeLimit to value 21600
Gurobi Optimizer version 10.0.1 build v10.0.1rc0 (linux64)

CPU model: AMD EPYC 7742 64-Core Processor, instruction set [SSE2|AVX|AVX2]
Thread count: 128 physical cores, 256 logical processors, using up to 32 threads

Optimize a model with 85812375 rows, 42903525 columns and 85810019 nonzeros
Model fingerprint: 0x19c17480
Coefficient statistics:
  Matrix range     [2e-11, 8e+03]
  Objective range  [2e-11, 8e+03]
  Bounds range     [1e+00, 1e+00]
  RHS range        [1e+00, 1e+04]
Warning: Model contains large matrix coefficient range
         Consider reformulating model or setting NumericFocus parameter
         to avoid numerical issues.
Presolve removed 3781 rows and 0 columns (presolve time = 18s) ...
Presolve removed 85812054 rows and 42900563 columns (presolve time = 27s) ...
Presolve removed 85812054 rows and 42902456 columns (presolve time = 32s) ...
Presolve removed 85812054 rows and 42903204 columns (presolve time = 36s) ...
Presolve removed 85812375 rows and 42903525 columns (presolve time = 42s) ...
Presolve removed 85812375 rows and 42903525 columns
Presolve time: 48.15s
Presolve: All rows and columns removed
Iteration    Objective       Primal Inf.    Dual Inf.      Time
       0    8.1401052e+05   0.000000e+00   0.000000e+00    103s

Solved in 0 iterations and 102.86 seconds (50.16 work units)
Optimal objective  8.140105152e+05
========================================================================================================================
Start filling the leftover demands to their 3 choice

Total demand fulfilled in previous round 0.81401, with leftover unfulfilled demand: 0.65731;    Resulting in a total of 1.47132, but b/c consideration set, the maximum possible demand in coming round is 0.0931;    Try to fill them with 3079 sites that has leftover capacity 10.56158

Set parameter MIPFocus to value 3
Set parameter MIPGap to value 0.005
Set parameter TimeLimit to value 21600
Gurobi Optimizer version 10.0.1 build v10.0.1rc0 (linux64)

CPU model: AMD EPYC 7742 64-Core Processor, instruction set [SSE2|AVX|AVX2]
Thread count: 128 physical cores, 256 logical processors, using up to 32 threads

Optimize a model with 85812375 rows, 42903525 columns and 85807513 nonzeros
Model fingerprint: 0x15506e0c
Coefficient statistics:
  Matrix range     [9e-11, 3e+03]
  Objective range  [9e-11, 3e+03]
  Bounds range     [1e+00, 1e+00]
  RHS range        [1e+00, 1e+04]
Warning: Model contains large matrix coefficient range
         Consider reformulating model or setting NumericFocus parameter
         to avoid numerical issues.
Presolve removed 4988 rows and 0 columns (presolve time = 14s) ...
Presolve removed 85812356 rows and 42903063 columns (presolve time = 22s) ...
Presolve removed 85812356 rows and 42903481 columns (presolve time = 27s) ...
Presolve removed 85812356 rows and 42903506 columns (presolve time = 32s) ...
Presolve removed 85812375 rows and 42903525 columns (presolve time = 35s) ...
Presolve removed 85812375 rows and 42903525 columns
Presolve time: 42.02s
Presolve: All rows and columns removed
Iteration    Objective       Primal Inf.    Dual Inf.      Time
       0    7.7403842e+04   0.000000e+00   0.000000e+00     94s

Solved in 0 iterations and 93.86 seconds (50.16 work units)
Optimal objective  7.740384245e+04
Finished evaluate stage for setting _10000_5_4q_mnl_A500!

